webassembly/ejemplos_results/15/folder15_json_49.txt
=====UNSATISFIABLE=====
% time elapsed: 0.83 s
